10
0  22  13  90  44  55  18  77  31  66
22  0  65  28  12  81  49  17  59  24
13  65  0  45  60  14  22  73  41  19
90  28  45  0  55  63  12  87  18  52
44  12  60  55  0  44  69  25  56  37
55  81  14  63  44  0  85  22  49  14
18  49  22  12  69  85  0  64  11  58
77  17  73  87  25  22  64  0  65  23
31  59  41  18  56  49  11  65  0  72
66  24  19  52  37  14  58  23  72  0